unsat
(A1 A2 A3 A4 A5 A6 I1 I2 I3 I4 I5 I6 I11 I12 I13 I14 I15 I16 T1 T2 T3 T4 E2 E3 F1 F2 F3 F4 W1 W2 W3 W4 W5 W6 X1 X2 X3 X4 Y0 Y1 Y2 Y3 Y4 Y11 Y12 Y13 Y14 Y15 Y16 Y17 Q2 Q3 Q4 Q5 Q6)
(:added-eqs                 43915
 :arith-make-feasible       38
 :arith-max-columns         4
 :binary-propagations       64
 :conflicts                 2246
 :decisions                 20816
 :del-clause                232604
 :final-checks              59
 :lazy-quant-instantiations 1054625
 :max-generation            12
 :max-memory                143.34
 :memory                    127.34
 :minimized-lits            12943
 :mk-bool-var               61195
 :mk-clause                 234853
 :num-allocs                3672035822
 :num-checks                1
 :propagations              83781
 :quant-instantiations      290532
 :restarts                  28
 :rlimit-count              136275648
 :time                      30.73
 :total-time                30.71)
